c n orig vars 82
p cnf 237 644
83 -1 0
83 -2 0
-83 1 2 0
84 -3 0
84 -4 0
-84 3 4 0
85 -5 0
85 -6 0
-85 5 6 0
86 -7 0
86 -8 0
-86 7 8 0
87 -9 0
87 -10 0
-87 9 10 0
88 -11 0
88 -12 0
-88 11 12 0
89 -13 0
89 -14 0
-89 13 14 0
90 -15 0
90 -16 0
-90 15 16 0
91 -17 0
91 -18 0
-91 17 18 0
92 -19 0
92 -20 0
-92 19 20 0
93 -21 0
93 -22 0
-93 21 22 0
94 -23 0
94 -24 0
-94 23 24 0
95 -25 0
95 -26 0
-95 25 26 0
96 -27 0
96 -28 0
-96 27 28 0
97 -29 0
97 -30 0
-97 29 30 0
98 -31 0
98 -32 0
-98 31 32 0
99 -33 0
99 -34 0
-99 33 34 0
100 -35 0
100 -36 0
-100 35 36 0
101 -37 0
101 -38 0
-101 37 38 0
102 -39 0
102 -40 0
-102 39 40 0
-103 83 0
-103 84 0
-103 85 0
-103 86 0
-103 87 0
-103 88 0
-103 89 0
-103 90 0
-103 91 0
-103 92 0
-103 93 0
-103 94 0
-103 95 0
-103 96 0
-103 97 0
-103 98 0
-103 99 0
-103 100 0
-103 101 0
-103 102 0
103 -83 -84 -85 -86 -87 -88 -89 -90 -91 -92 -93 -94 -95 -96 -97 -98 -99 -100 -101 -102 0
-103 0
104 -41 0
104 -48 0
104 -55 0
104 -62 0
104 -69 0
104 -76 0
-104 41 48 55 62 69 76 0
105 -42 0
105 -49 0
105 -56 0
105 -63 0
105 -70 0
105 -77 0
-105 42 49 56 63 70 77 0
106 -43 0
106 -50 0
106 -57 0
106 -64 0
106 -71 0
106 -78 0
-106 43 50 57 64 71 78 0
107 -44 0
107 -51 0
107 -58 0
107 -65 0
107 -72 0
107 -79 0
-107 44 51 58 65 72 79 0
108 -45 0
108 -52 0
108 -59 0
108 -66 0
108 -73 0
108 -80 0
-108 45 52 59 66 73 80 0
109 -46 0
109 -53 0
109 -60 0
109 -67 0
109 -74 0
109 -81 0
-109 46 53 60 67 74 81 0
110 -47 0
110 -54 0
110 -61 0
110 -68 0
110 -75 0
110 -82 0
-110 47 54 61 68 75 82 0
111 41 0
111 42 0
-111 -41 -42 0
112 41 0
112 43 0
-112 -41 -43 0
113 41 0
113 44 0
-113 -41 -44 0
114 41 0
114 45 0
-114 -41 -45 0
115 41 0
115 46 0
-115 -41 -46 0
116 41 0
116 47 0
-116 -41 -47 0
117 42 0
117 43 0
-117 -42 -43 0
118 42 0
118 44 0
-118 -42 -44 0
119 42 0
119 45 0
-119 -42 -45 0
120 42 0
120 46 0
-120 -42 -46 0
121 42 0
121 47 0
-121 -42 -47 0
122 43 0
122 44 0
-122 -43 -44 0
123 43 0
123 45 0
-123 -43 -45 0
124 43 0
124 46 0
-124 -43 -46 0
125 43 0
125 47 0
-125 -43 -47 0
126 44 0
126 45 0
-126 -44 -45 0
127 44 0
127 46 0
-127 -44 -46 0
128 44 0
128 47 0
-128 -44 -47 0
129 45 0
129 46 0
-129 -45 -46 0
130 45 0
130 47 0
-130 -45 -47 0
131 46 0
131 47 0
-131 -46 -47 0
132 48 0
132 49 0
-132 -48 -49 0
133 48 0
133 50 0
-133 -48 -50 0
134 48 0
134 51 0
-134 -48 -51 0
135 48 0
135 52 0
-135 -48 -52 0
136 48 0
136 53 0
-136 -48 -53 0
137 48 0
137 54 0
-137 -48 -54 0
138 49 0
138 50 0
-138 -49 -50 0
139 49 0
139 51 0
-139 -49 -51 0
140 49 0
140 52 0
-140 -49 -52 0
141 49 0
141 53 0
-141 -49 -53 0
142 49 0
142 54 0
-142 -49 -54 0
143 50 0
143 51 0
-143 -50 -51 0
144 50 0
144 52 0
-144 -50 -52 0
145 50 0
145 53 0
-145 -50 -53 0
146 50 0
146 54 0
-146 -50 -54 0
147 51 0
147 52 0
-147 -51 -52 0
148 51 0
148 53 0
-148 -51 -53 0
149 51 0
149 54 0
-149 -51 -54 0
150 52 0
150 53 0
-150 -52 -53 0
151 52 0
151 54 0
-151 -52 -54 0
152 53 0
152 54 0
-152 -53 -54 0
153 55 0
153 56 0
-153 -55 -56 0
154 55 0
154 57 0
-154 -55 -57 0
155 55 0
155 58 0
-155 -55 -58 0
156 55 0
156 59 0
-156 -55 -59 0
157 55 0
157 60 0
-157 -55 -60 0
158 55 0
158 61 0
-158 -55 -61 0
159 56 0
159 57 0
-159 -56 -57 0
160 56 0
160 58 0
-160 -56 -58 0
161 56 0
161 59 0
-161 -56 -59 0
162 56 0
162 60 0
-162 -56 -60 0
163 56 0
163 61 0
-163 -56 -61 0
164 57 0
164 58 0
-164 -57 -58 0
165 57 0
165 59 0
-165 -57 -59 0
166 57 0
166 60 0
-166 -57 -60 0
167 57 0
167 61 0
-167 -57 -61 0
168 58 0
168 59 0
-168 -58 -59 0
169 58 0
169 60 0
-169 -58 -60 0
170 58 0
170 61 0
-170 -58 -61 0
171 59 0
171 60 0
-171 -59 -60 0
172 59 0
172 61 0
-172 -59 -61 0
173 60 0
173 61 0
-173 -60 -61 0
174 62 0
174 63 0
-174 -62 -63 0
175 62 0
175 64 0
-175 -62 -64 0
176 62 0
176 65 0
-176 -62 -65 0
177 62 0
177 66 0
-177 -62 -66 0
178 62 0
178 67 0
-178 -62 -67 0
179 62 0
179 68 0
-179 -62 -68 0
180 63 0
180 64 0
-180 -63 -64 0
181 63 0
181 65 0
-181 -63 -65 0
182 63 0
182 66 0
-182 -63 -66 0
183 63 0
183 67 0
-183 -63 -67 0
184 63 0
184 68 0
-184 -63 -68 0
185 64 0
185 65 0
-185 -64 -65 0
186 64 0
186 66 0
-186 -64 -66 0
187 64 0
187 67 0
-187 -64 -67 0
188 64 0
188 68 0
-188 -64 -68 0
189 65 0
189 66 0
-189 -65 -66 0
190 65 0
190 67 0
-190 -65 -67 0
191 65 0
191 68 0
-191 -65 -68 0
192 66 0
192 67 0
-192 -66 -67 0
193 66 0
193 68 0
-193 -66 -68 0
194 67 0
194 68 0
-194 -67 -68 0
195 69 0
195 70 0
-195 -69 -70 0
196 69 0
196 71 0
-196 -69 -71 0
197 69 0
197 72 0
-197 -69 -72 0
198 69 0
198 73 0
-198 -69 -73 0
199 69 0
199 74 0
-199 -69 -74 0
200 69 0
200 75 0
-200 -69 -75 0
201 70 0
201 71 0
-201 -70 -71 0
202 70 0
202 72 0
-202 -70 -72 0
203 70 0
203 73 0
-203 -70 -73 0
204 70 0
204 74 0
-204 -70 -74 0
205 70 0
205 75 0
-205 -70 -75 0
206 71 0
206 72 0
-206 -71 -72 0
207 71 0
207 73 0
-207 -71 -73 0
208 71 0
208 74 0
-208 -71 -74 0
209 71 0
209 75 0
-209 -71 -75 0
210 72 0
210 73 0
-210 -72 -73 0
211 72 0
211 74 0
-211 -72 -74 0
212 72 0
212 75 0
-212 -72 -75 0
213 73 0
213 74 0
-213 -73 -74 0
214 73 0
214 75 0
-214 -73 -75 0
215 74 0
215 75 0
-215 -74 -75 0
216 76 0
216 77 0
-216 -76 -77 0
217 76 0
217 78 0
-217 -76 -78 0
218 76 0
218 79 0
-218 -76 -79 0
219 76 0
219 80 0
-219 -76 -80 0
220 76 0
220 81 0
-220 -76 -81 0
221 76 0
221 82 0
-221 -76 -82 0
222 77 0
222 78 0
-222 -77 -78 0
223 77 0
223 79 0
-223 -77 -79 0
224 77 0
224 80 0
-224 -77 -80 0
225 77 0
225 81 0
-225 -77 -81 0
226 77 0
226 82 0
-226 -77 -82 0
227 78 0
227 79 0
-227 -78 -79 0
228 78 0
228 80 0
-228 -78 -80 0
229 78 0
229 81 0
-229 -78 -81 0
230 78 0
230 82 0
-230 -78 -82 0
231 79 0
231 80 0
-231 -79 -80 0
232 79 0
232 81 0
-232 -79 -81 0
233 79 0
233 82 0
-233 -79 -82 0
234 80 0
234 81 0
-234 -80 -81 0
235 80 0
235 82 0
-235 -80 -82 0
236 81 0
236 82 0
-236 -81 -82 0
-237 104 0
-237 105 0
-237 106 0
-237 107 0
-237 108 0
-237 109 0
-237 110 0
-237 111 0
-237 112 0
-237 113 0
-237 114 0
-237 115 0
-237 116 0
-237 117 0
-237 118 0
-237 119 0
-237 120 0
-237 121 0
-237 122 0
-237 123 0
-237 124 0
-237 125 0
-237 126 0
-237 127 0
-237 128 0
-237 129 0
-237 130 0
-237 131 0
-237 132 0
-237 133 0
-237 134 0
-237 135 0
-237 136 0
-237 137 0
-237 138 0
-237 139 0
-237 140 0
-237 141 0
-237 142 0
-237 143 0
-237 144 0
-237 145 0
-237 146 0
-237 147 0
-237 148 0
-237 149 0
-237 150 0
-237 151 0
-237 152 0
-237 153 0
-237 154 0
-237 155 0
-237 156 0
-237 157 0
-237 158 0
-237 159 0
-237 160 0
-237 161 0
-237 162 0
-237 163 0
-237 164 0
-237 165 0
-237 166 0
-237 167 0
-237 168 0
-237 169 0
-237 170 0
-237 171 0
-237 172 0
-237 173 0
-237 174 0
-237 175 0
-237 176 0
-237 177 0
-237 178 0
-237 179 0
-237 180 0
-237 181 0
-237 182 0
-237 183 0
-237 184 0
-237 185 0
-237 186 0
-237 187 0
-237 188 0
-237 189 0
-237 190 0
-237 191 0
-237 192 0
-237 193 0
-237 194 0
-237 195 0
-237 196 0
-237 197 0
-237 198 0
-237 199 0
-237 200 0
-237 201 0
-237 202 0
-237 203 0
-237 204 0
-237 205 0
-237 206 0
-237 207 0
-237 208 0
-237 209 0
-237 210 0
-237 211 0
-237 212 0
-237 213 0
-237 214 0
-237 215 0
-237 216 0
-237 217 0
-237 218 0
-237 219 0
-237 220 0
-237 221 0
-237 222 0
-237 223 0
-237 224 0
-237 225 0
-237 226 0
-237 227 0
-237 228 0
-237 229 0
-237 230 0
-237 231 0
-237 232 0
-237 233 0
-237 234 0
-237 235 0
-237 236 0
237 -104 -105 -106 -107 -108 -109 -110 -111 -112 -113 -114 -115 -116 -117 -118 -119 -120 -121 -122 -123 -124 -125 -126 -127 -128 -129 -130 -131 -132 -133 -134 -135 -136 -137 -138 -139 -140 -141 -142 -143 -144 -145 -146 -147 -148 -149 -150 -151 -152 -153 -154 -155 -156 -157 -158 -159 -160 -161 -162 -163 -164 -165 -166 -167 -168 -169 -170 -171 -172 -173 -174 -175 -176 -177 -178 -179 -180 -181 -182 -183 -184 -185 -186 -187 -188 -189 -190 -191 -192 -193 -194 -195 -196 -197 -198 -199 -200 -201 -202 -203 -204 -205 -206 -207 -208 -209 -210 -211 -212 -213 -214 -215 -216 -217 -218 -219 -220 -221 -222 -223 -224 -225 -226 -227 -228 -229 -230 -231 -232 -233 -234 -235 -236 0
-237 0
